proyfinal/src/viki/013/experimentInOfficeAgust.take6.output/19d6bbb1-5d02-4d40-84cb-992bba0d1957.als.dat
{'cnf.clauses': '118081',
 'cnf.totvars': '69608',
 'conflict literals': '2594',
 'conflicts': '337',
 'decisions': '36452',
 'memused.mb': '17.12',
 'outcome': 'UNSAT',
 'propagations': '551480',
 'restarts': '3',
 'solver.msecs': 53,
 'task.msecs': 92}
